
******************************************************************************
This program contains Ipopt, a library for large-scale nonlinear optimization.
 Ipopt is released as open source code under the Eclipse Public License (EPL).
         For more information visit http://projects.coin-or.org/Ipopt

This version of Ipopt was compiled from source code available at
    https://github.com/IDAES/Ipopt as part of the Institute for the Design of
    Advanced Energy Systems Process Systems Engineering Framework (IDAES PSE
    Framework) Copyright (c) 2018-2019. See https://github.com/IDAES/idaes-pse.

This version of Ipopt was compiled using HSL, a collection of Fortran codes
    for large-scale scientific computation.  All technical papers, sales and
    publicity material resulting from use of the HSL codes within IPOPT must
    contain the following acknowledgement:
        HSL, a collection of Fortran codes for large-scale scientific
        computation. See http://www.hsl.rl.ac.uk.
******************************************************************************

This is Ipopt version 3.13.2, running with linear solver ma27.

Number of nonzeros in equality constraint Jacobian...:      808
Number of nonzeros in inequality constraint Jacobian.:        0
Number of nonzeros in Lagrangian Hessian.............:      702

Total number of variables............................:      351
                     variables with only lower bounds:      108
                variables with lower and upper bounds:      189
                     variables with only upper bounds:        0
Total number of equality constraints.................:      350
Total number of inequality constraints...............:        0
        inequality constraints with only lower bounds:        0
   inequality constraints with lower and upper bounds:        0
        inequality constraints with only upper bounds:        0

iter    objective    inf_pr   inf_du lg(mu)  ||d||  lg(rg) alpha_du alpha_pr  ls
   0  0.0000000e+00 2.83e+00 5.55e-16  -1.0 0.00e+00    -  0.00e+00 0.00e+00   0
   1  1.4473569e-02 2.56e+00 5.25e+04  -1.0 6.40e+04    -  7.21e-02 1.31e-01h  1
   2  1.9842392e-02 2.50e+00 5.11e+04  -1.0 5.60e+04    -  1.60e-01 2.55e-02h  1
   3  2.1204888e-02 2.48e+00 5.08e+04  -1.0 1.21e+05    -  8.30e-01 5.28e-03h  1
   4  2.0377953e+00 1.60e+00 3.65e+04  -1.0 1.24e+05    -  2.58e-01 9.90e-01h  1
   5  2.7925056e+00 3.86e+00 1.28e+04  -1.0 3.05e+04    -  4.74e-01 9.90e-01h  1
   6  2.7960154e+00 3.11e+00 3.61e+04  -1.0 8.44e+02    -  4.24e-01 2.06e-01h  3
   7  2.8094861e+00 7.41e-01 3.28e+03  -1.0 6.71e+02    -  9.66e-01 9.90e-01h  1
   8  2.8105676e+00 7.51e-02 3.38e+01  -1.0 3.89e+01    -  9.90e-01 9.90e-01h  1
   9  2.8502153e+00 1.62e-03 1.38e+04  -1.0 1.33e+03    -  9.90e-01 9.90e-01h  1
iter    objective    inf_pr   inf_du lg(mu)  ||d||  lg(rg) alpha_du alpha_pr  ls
  10  2.8096909e+00 1.65e-04 2.27e+07  -3.8 1.50e+03    -  9.99e-01 8.98e-01f  1
  11  2.8097145e+00 4.47e-08 3.35e+05  -3.8 1.16e+00    -  1.00e+00 1.00e+00h  1
In iteration 11, 27 Slacks too small, adjusting variable bounds
  12  2.8097139e+00 8.34e-12 2.20e+09  -3.8 1.74e-02    -  1.00e+00 1.00e+00h  1
  13  2.8097139e+00 1.89e-13 6.68e-04  -3.8 2.67e-06    -  1.00e+00 1.00e+00h  1
  14  2.8095635e+00 5.30e-13 7.00e+05  -9.0 5.04e+00    -  1.00e+00 1.00e+00F  1
  15  2.8095635e+00 3.79e-13 7.64e-11  -9.0 3.05e-05    -  1.00e+00 1.00e+00f  1

Number of Iterations....: 15

                                   (scaled)                 (unscaled)
Objective...............:   2.8095634875902507e+00    2.8095634875902507e+00
Dual infeasibility......:   7.6397554948925972e-11    7.6397554948925972e-11
Constraint violation....:   3.7903014060702844e-13    3.7903014060702844e-13
Complementarity.........:   9.0909099699068211e-10    9.0909099699068211e-10
Overall NLP error.......:   6.9027726661896096e-11    9.0909099699068211e-10


Number of objective function evaluations             = 21
Number of objective gradient evaluations             = 16
Number of equality constraint evaluations            = 21
Number of inequality constraint evaluations          = 0
Number of equality constraint Jacobian evaluations   = 16
Number of inequality constraint Jacobian evaluations = 0
Number of Lagrangian Hessian evaluations             = 15
Total CPU secs in IPOPT (w/o function evaluations)   =      0.031
Total CPU secs in NLP function evaluations           =      0.290

EXIT: Optimal Solution Found.
